
Gurobi 6.0.4 (win64) logging started 06/16/15 10:58:05

Read LP format model from file E:\Eigene Dateien\Downloads\Michi shit\VRPTWMS-master\VRPTWMS\instances\mip\fuel\N8-C_DV100-C_SV25_F5_6_No_1.lp
Reading time = 0.01 seconds
(null): 417 rows, 208 columns, 1715 nonzeros
Optimize a model with 417 rows, 208 columns and 1715 nonzeros
Model has 576 quadratic constraints
WARNING: Only barrier available for SOCP models
Coefficient statistics:
  Matrix range    [1e+00, 1e+06]
  Objective range [2e+04, 1e+07]
  Bounds range    [1e+00, 1e+06]
  RHS range       [1e+00, 1e+06]
Presolve removed 37 rows and 26 columns
Presolve time: 0.03s
Presolved: 1358 rows, 693 columns, 6547 nonzeros
Variable types: 467 continuous, 226 integer (183 binary)
Optimize a model with 1358 rows, 693 columns and 6547 nonzeros
Coefficient statistics:
  Matrix range    [1e+00, 1e+06]
  Objective range [2e+04, 1e+07]
  Bounds range    [1e+00, 1e+06]
  RHS range       [1e+00, 1e+06]

Concurrent LP optimizer: dual simplex and barrier
Showing barrier log only...

Presolve removed 135 rows and 87 columns
Presolved: 1223 rows, 607 columns, 5929 nonzeros

Root barrier log...

Ordering time: 0.01s

Barrier performed 0 iterations in 0.06 seconds
Barrier solve interrupted - model solved by another algorithm


Solved with dual simplex
Solved in 87 iterations and 0.06 seconds
Optimal objective  5.805258545e+06

Root relaxation: objective 5.805259e+06, 87 iterations, 0.02 seconds

    Nodes    |    Current Node    |     Objective Bounds      |     Work
 Expl Unexpl |  Obj  Depth IntInf | Incumbent    BestBd   Gap | It/Node Time

     0     0 5805258.55    0   30          - 5805258.55      -     -    0s
     0     0 1.1091e+07    0   31          - 1.1091e+07      -     -    0s
     0     0 1.1177e+07    0   30          - 1.1177e+07      -     -    0s
     0     0 1.1284e+07    0   24          - 1.1284e+07      -     -    0s
     0     0 1.1296e+07    0   31          - 1.1296e+07      -     -    0s
     0     0 1.1307e+07    0   30          - 1.1307e+07      -     -    0s
     0     0 1.1311e+07    0   35          - 1.1311e+07      -     -    0s
     0     0 1.1311e+07    0   25          - 1.1311e+07      -     -    0s
     0     0 1.1311e+07    0   26          - 1.1311e+07      -     -    0s
H    0     0                    3.227790e+07 1.1311e+07  65.0%     -    0s
     0     0 1.1311e+07    0   24 3.2278e+07 1.1311e+07  65.0%     -    0s
     0     0 1.1311e+07    0   32 3.2278e+07 1.1311e+07  65.0%     -    0s
     0     0 1.1311e+07    0   28 3.2278e+07 1.1311e+07  65.0%     -    0s
     0     2 1.1311e+07    0   28 3.2278e+07 1.1311e+07  65.0%     -    0s
 14743  1301     cutoff   42      3.2278e+07 2.2995e+07  28.8%  18.8    5s

Cutting planes:
  Gomory: 4
  Cover: 1
  Implied bound: 2
  Clique: 2
  Flow cover: 1
  GUB cover: 1
  Zero half: 1

Explored 19714 nodes (372826 simplex iterations) in 5.98 seconds
Thread count was 4 (of 4 available processors)

Optimal solution found (tolerance 1.00e-04)
Best objective 3.227790000000e+07, best bound 3.227790000000e+07, gap 0.0%
k_c1	60002.0
k_c2	30000.0
k_c3	1000000.0
k_c4	999999.0
k_c5	10001.0
k_c6	949999.0
k_c7	969998.0
k_c8	909997.0
k_dN	-0.0
o_1	-0.0
o_2	-0.0
o_3	-0.0
o_4	-0.0
o_5	-0.0
o_6	-0.0
o_7	-0.0
o_8	-0.0
p_1	1.0
p_2	-0.0
p_3	-0.0
p_4	-0.0
p_5	-0.0
p_6	-0.0
p_7	-0.0
p_8	-0.0
phi_c1	-0.0
phi_c2	11701.0
phi_c3	45270.0
phi_c4	23970.0
phi_c5	12872.0
phi_c6	21335.0
phi_c7	7245.0
phi_c8	3345.0
phi_dN	-0.0
pi_c1	250000.0
pi_c2	250000.0
pi_c3	250000.0
pi_c4	250000.0
pi_c5	250000.0
pi_c6	250000.0
pi_c7	250000.0
pi_c8	250000.0
pi_dN	-0.0
tauD_c1	450000.0
tauD_c2	799999.0
tauD_c3	75723.0
tauD_c4	100000.0
tauD_c5	250000.0
tauD_c6	158375.0
tauD_c7	222502.0
tauD_c8	387499.0
tauD_d0	-0.0
tauD_dN	1000000.0
tauS_c1	409574.0
tauS_c2	876275.0
tauS_c3	902325.0
tauS_c4	870700.0
tauS_c5	871900.0
tauS_c6	840550.0
tauS_c7	836175.0
tauS_c8	825850.0
tauS_d0	-0.0
tauS_dN	829147.0
x_c1_c2	1.0
x_c2_dN	1.0
x_c3_c6	1.0
x_c4_c7	1.0
x_c5_dN	1.0
x_c6_c5	1.0
x_c7_c8	1.0
x_c8_c1	1.0
x_d0_c3	1.0
x_d0_c4	1.0
z_c1_dN	1.0
z_d0_c1	1.0
